c File: flat100_3_0.col 0
c 0 0 0
c SOURCE: Joseph Culberson (joe@cs.ualberta.ca)
c DESCRIPTION: Quasi-random coloring problem
c              generated with flatness = 0
c                             probability = 0.072
c                             known coloring = 3
c                             random seed = 1003
c              Creation Date:  Thu Jun  4 18:54:39 1998
c Maximum degree = 8 Minimum degree = 0
c p edge 100 239
c cnf created by edge2cnf
p cnf 300 1117
-1 -2 0 0
-1 -3 0 0
-2 -3 0 0
1 2 3 0
-4 -5 0 0
-4 -6 0 0
-5 -6 0 0
4 5 6 0
-7 -8 0 0
-7 -9 0 0
-8 -9 0 0
7 8 9 0
-10 -11 0 0
-10 -12 0 0
-11 -12 0 0
10 11 12 0
-13 -14 0 0
-13 -15 0 0
-14 -15 0 0
13 14 15 0
-16 -17 0 0
-16 -18 0 0
-17 -18 0 0
16 17 18 0
-19 -20 0 0
-19 -21 0 0
-20 -21 0 0
19 20 21 0
-22 -23 0 0
-22 -24 0 0
-23 -24 0 0
22 23 24 0
-25 -26 0 0
-25 -27 0 0
-26 -27 0 0
25 26 27 0
-28 -29 0 0
-28 -30 0 0
-29 -30 0 0
28 29 30 0
-31 -32 0 0
-31 -33 0 0
-32 -33 0 0
31 32 33 0
-34 -35 0 0
-34 -36 0 0
-35 -36 0 0
34 35 36 0
-37 -38 0 0
-37 -39 0 0
-38 -39 0 0
37 38 39 0
-40 -41 0 0
-40 -42 0 0
-41 -42 0 0
40 41 42 0
-43 -44 0 0
-43 -45 0 0
-44 -45 0 0
43 44 45 0
-46 -47 0 0
-46 -48 0 0
-47 -48 0 0
46 47 48 0
-49 -50 0 0
-49 -51 0 0
-50 -51 0 0
49 50 51 0
-52 -53 0 0
-52 -54 0 0
-53 -54 0 0
52 53 54 0
-55 -56 0 0
-55 -57 0 0
-56 -57 0 0
55 56 57 0
-58 -59 0 0
-58 -60 0 0
-59 -60 0 0
58 59 60 0
-61 -62 0 0
-61 -63 0 0
-62 -63 0 0
61 62 63 0
-64 -65 0 0
-64 -66 0 0
-65 -66 0 0
64 65 66 0
-67 -68 0 0
-67 -69 0 0
-68 -69 0 0
67 68 69 0
-70 -71 0 0
-70 -72 0 0
-71 -72 0 0
70 71 72 0
-73 -74 0 0
-73 -75 0 0
-74 -75 0 0
73 74 75 0
-76 -77 0 0
-76 -78 0 0
-77 -78 0 0
76 77 78 0
-79 -80 0 0
-79 -81 0 0
-80 -81 0 0
79 80 81 0
-82 -83 0 0
-82 -84 0 0
-83 -84 0 0
82 83 84 0
-85 -86 0 0
-85 -87 0 0
-86 -87 0 0
85 86 87 0
-88 -89 0 0
-88 -90 0 0
-89 -90 0 0
88 89 90 0
-91 -92 0 0
-91 -93 0 0
-92 -93 0 0
91 92 93 0
-94 -95 0 0
-94 -96 0 0
-95 -96 0 0
94 95 96 0
-97 -98 0 0
-97 -99 0 0
-98 -99 0 0
97 98 99 0
-100 -101 0 0
-100 -102 0 0
-101 -102 0 0
100 101 102 0
-103 -104 0 0
-103 -105 0 0
-104 -105 0 0
103 104 105 0
-106 -107 0 0
-106 -108 0 0
-107 -108 0 0
106 107 108 0
-109 -110 0 0
-109 -111 0 0
-110 -111 0 0
109 110 111 0
-112 -113 0 0
-112 -114 0 0
-113 -114 0 0
112 113 114 0
-115 -116 0 0
-115 -117 0 0
-116 -117 0 0
115 116 117 0
-118 -119 0 0
-118 -120 0 0
-119 -120 0 0
118 119 120 0
-121 -122 0 0
-121 -123 0 0
-122 -123 0 0
121 122 123 0
-124 -125 0 0
-124 -126 0 0
-125 -126 0 0
124 125 126 0
-127 -128 0 0
-127 -129 0 0
-128 -129 0 0
127 128 129 0
-130 -131 0 0
-130 -132 0 0
-131 -132 0 0
130 131 132 0
-133 -134 0 0
-133 -135 0 0
-134 -135 0 0
133 134 135 0
-136 -137 0 0
-136 -138 0 0
-137 -138 0 0
136 137 138 0
-139 -140 0 0
-139 -141 0 0
-140 -141 0 0
139 140 141 0
-142 -143 0 0
-142 -144 0 0
-143 -144 0 0
142 143 144 0
-145 -146 0 0
-145 -147 0 0
-146 -147 0 0
145 146 147 0
-148 -149 0 0
-148 -150 0 0
-149 -150 0 0
148 149 150 0
-151 -152 0 0
-151 -153 0 0
-152 -153 0 0
151 152 153 0
-154 -155 0 0
-154 -156 0 0
-155 -156 0 0
154 155 156 0
-157 -158 0 0
-157 -159 0 0
-158 -159 0 0
157 158 159 0
-160 -161 0 0
-160 -162 0 0
-161 -162 0 0
160 161 162 0
-163 -164 0 0
-163 -165 0 0
-164 -165 0 0
163 164 165 0
-166 -167 0 0
-166 -168 0 0
-167 -168 0 0
166 167 168 0
-169 -170 0 0
-169 -171 0 0
-170 -171 0 0
169 170 171 0
-172 -173 0 0
-172 -174 0 0
-173 -174 0 0
172 173 174 0
-175 -176 0 0
-175 -177 0 0
-176 -177 0 0
175 176 177 0
-178 -179 0 0
-178 -180 0 0
-179 -180 0 0
178 179 180 0
-181 -182 0 0
-181 -183 0 0
-182 -183 0 0
181 182 183 0
-184 -185 0 0
-184 -186 0 0
-185 -186 0 0
184 185 186 0
-187 -188 0 0
-187 -189 0 0
-188 -189 0 0
187 188 189 0
-190 -191 0 0
-190 -192 0 0
-191 -192 0 0
190 191 192 0
-193 -194 0 0
-193 -195 0 0
-194 -195 0 0
193 194 195 0
-196 -197 0 0
-196 -198 0 0
-197 -198 0 0
196 197 198 0
-199 -200 0 0
-199 -201 0 0
-200 -201 0 0
199 200 201 0
-202 -203 0 0
-202 -204 0 0
-203 -204 0 0
202 203 204 0
-205 -206 0 0
-205 -207 0 0
-206 -207 0 0
205 206 207 0
-208 -209 0 0
-208 -210 0 0
-209 -210 0 0
208 209 210 0
-211 -212 0 0
-211 -213 0 0
-212 -213 0 0
211 212 213 0
-214 -215 0 0
-214 -216 0 0
-215 -216 0 0
214 215 216 0
-217 -218 0 0
-217 -219 0 0
-218 -219 0 0
217 218 219 0
-220 -221 0 0
-220 -222 0 0
-221 -222 0 0
220 221 222 0
-223 -224 0 0
-223 -225 0 0
-224 -225 0 0
223 224 225 0
-226 -227 0 0
-226 -228 0 0
-227 -228 0 0
226 227 228 0
-229 -230 0 0
-229 -231 0 0
-230 -231 0 0
229 230 231 0
-232 -233 0 0
-232 -234 0 0
-233 -234 0 0
232 233 234 0
-235 -236 0 0
-235 -237 0 0
-236 -237 0 0
235 236 237 0
-238 -239 0 0
-238 -240 0 0
-239 -240 0 0
238 239 240 0
-241 -242 0 0
-241 -243 0 0
-242 -243 0 0
241 242 243 0
-244 -245 0 0
-244 -246 0 0
-245 -246 0 0
244 245 246 0
-247 -248 0 0
-247 -249 0 0
-248 -249 0 0
247 248 249 0
-250 -251 0 0
-250 -252 0 0
-251 -252 0 0
250 251 252 0
-253 -254 0 0
-253 -255 0 0
-254 -255 0 0
253 254 255 0
-256 -257 0 0
-256 -258 0 0
-257 -258 0 0
256 257 258 0
-259 -260 0 0
-259 -261 0 0
-260 -261 0 0
259 260 261 0
-262 -263 0 0
-262 -264 0 0
-263 -264 0 0
262 263 264 0
-265 -266 0 0
-265 -267 0 0
-266 -267 0 0
265 266 267 0
-268 -269 0 0
-268 -270 0 0
-269 -270 0 0
268 269 270 0
-271 -272 0 0
-271 -273 0 0
-272 -273 0 0
271 272 273 0
-274 -275 0 0
-274 -276 0 0
-275 -276 0 0
274 275 276 0
-277 -278 0 0
-277 -279 0 0
-278 -279 0 0
277 278 279 0
-280 -281 0 0
-280 -282 0 0
-281 -282 0 0
280 281 282 0
-283 -284 0 0
-283 -285 0 0
-284 -285 0 0
283 284 285 0
-286 -287 0 0
-286 -288 0 0
-287 -288 0 0
286 287 288 0
-289 -290 0 0
-289 -291 0 0
-290 -291 0 0
289 290 291 0
-292 -293 0 0
-292 -294 0 0
-293 -294 0 0
292 293 294 0
-295 -296 0 0
-295 -297 0 0
-296 -297 0 0
295 296 297 0
-298 -299 0 0
-298 -300 0 0
-299 -300 0 0
298 299 300 0
-112 -1 0 0
-113 -2 0 0
-114 -3 0 0
-118 -1 0 0
-119 -2 0 0
-120 -3 0 0
-157 -1 0 0
-158 -2 0 0
-159 -3 0 0
-172 -1 0 0
-173 -2 0 0
-174 -3 0 0
-205 -1 0 0
-206 -2 0 0
-207 -3 0 0
-235 -1 0 0
-236 -2 0 0
-237 -3 0 0
-199 -4 0 0
-200 -5 0 0
-201 -6 0 0
-202 -4 0 0
-203 -5 0 0
-204 -6 0 0
-145 -7 0 0
-146 -8 0 0
-147 -9 0 0
-178 -7 0 0
-179 -8 0 0
-180 -9 0 0
-205 -7 0 0
-206 -8 0 0
-207 -9 0 0
-277 -7 0 0
-278 -8 0 0
-279 -9 0 0
-142 -10 0 0
-143 -11 0 0
-144 -12 0 0
-133 -13 0 0
-134 -14 0 0
-135 -15 0 0
-148 -13 0 0
-149 -14 0 0
-150 -15 0 0
-229 -13 0 0
-230 -14 0 0
-231 -15 0 0
-280 -13 0 0
-281 -14 0 0
-282 -15 0 0
-283 -13 0 0
-284 -14 0 0
-285 -15 0 0
-295 -13 0 0
-296 -14 0 0
-297 -15 0 0
-148 -16 0 0
-149 -17 0 0
-150 -18 0 0
-160 -16 0 0
-161 -17 0 0
-162 -18 0 0
-214 -16 0 0
-215 -17 0 0
-216 -18 0 0
-262 -16 0 0
-263 -17 0 0
-264 -18 0 0
-265 -16 0 0
-266 -17 0 0
-267 -18 0 0
-295 -16 0 0
-296 -17 0 0
-297 -18 0 0
-112 -19 0 0
-113 -20 0 0
-114 -21 0 0
-169 -19 0 0
-170 -20 0 0
-171 -21 0 0
-172 -19 0 0
-173 -20 0 0
-174 -21 0 0
-175 -19 0 0
-176 -20 0 0
-177 -21 0 0
-226 -19 0 0
-227 -20 0 0
-228 -21 0 0
-271 -19 0 0
-272 -20 0 0
-273 -21 0 0
-208 -22 0 0
-209 -23 0 0
-210 -24 0 0
-214 -22 0 0
-215 -23 0 0
-216 -24 0 0
-274 -22 0 0
-275 -23 0 0
-276 -24 0 0
-295 -22 0 0
-296 -23 0 0
-297 -24 0 0
-124 -25 0 0
-125 -26 0 0
-126 -27 0 0
-145 -25 0 0
-146 -26 0 0
-147 -27 0 0
-187 -25 0 0
-188 -26 0 0
-189 -27 0 0
-211 -25 0 0
-212 -26 0 0
-213 -27 0 0
-235 -25 0 0
-236 -26 0 0
-237 -27 0 0
-142 -28 0 0
-143 -29 0 0
-144 -30 0 0
-163 -28 0 0
-164 -29 0 0
-165 -30 0 0
-169 -28 0 0
-170 -29 0 0
-171 -30 0 0
-229 -28 0 0
-230 -29 0 0
-231 -30 0 0
-268 -28 0 0
-269 -29 0 0
-270 -30 0 0
-148 -31 0 0
-149 -32 0 0
-150 -33 0 0
-166 -31 0 0
-167 -32 0 0
-168 -33 0 0
-217 -31 0 0
-218 -32 0 0
-219 -33 0 0
-235 -31 0 0
-236 -32 0 0
-237 -33 0 0
-181 -34 0 0
-182 -35 0 0
-183 -36 0 0
-187 -34 0 0
-188 -35 0 0
-189 -36 0 0
-190 -34 0 0
-191 -35 0 0
-192 -36 0 0
-220 -34 0 0
-221 -35 0 0
-222 -36 0 0
-223 -34 0 0
-224 -35 0 0
-225 -36 0 0
-271 -34 0 0
-272 -35 0 0
-273 -36 0 0
-283 -34 0 0
-284 -35 0 0
-285 -36 0 0
-109 -37 0 0
-110 -38 0 0
-111 -39 0 0
-112 -37 0 0
-113 -38 0 0
-114 -39 0 0
-130 -37 0 0
-131 -38 0 0
-132 -39 0 0
-145 -37 0 0
-146 -38 0 0
-147 -39 0 0
-241 -37 0 0
-242 -38 0 0
-243 -39 0 0
-280 -37 0 0
-281 -38 0 0
-282 -39 0 0
-109 -40 0 0
-110 -41 0 0
-111 -42 0 0
-211 -40 0 0
-212 -41 0 0
-213 -42 0 0
-250 -40 0 0
-251 -41 0 0
-252 -42 0 0
-193 -43 0 0
-194 -44 0 0
-195 -45 0 0
-226 -43 0 0
-227 -44 0 0
-228 -45 0 0
-238 -43 0 0
-239 -44 0 0
-240 -45 0 0
-283 -43 0 0
-284 -44 0 0
-285 -45 0 0
-115 -46 0 0
-116 -47 0 0
-117 -48 0 0
-166 -46 0 0
-167 -47 0 0
-168 -48 0 0
-205 -46 0 0
-206 -47 0 0
-207 -48 0 0
-130 -49 0 0
-131 -50 0 0
-132 -51 0 0
-142 -49 0 0
-143 -50 0 0
-144 -51 0 0
-163 -52 0 0
-164 -53 0 0
-165 -54 0 0
-211 -52 0 0
-212 -53 0 0
-213 -54 0 0
-265 -52 0 0
-266 -53 0 0
-267 -54 0 0
-298 -52 0 0
-299 -53 0 0
-300 -54 0 0
-106 -55 0 0
-107 -56 0 0
-108 -57 0 0
-193 -55 0 0
-194 -56 0 0
-195 -57 0 0
-286 -55 0 0
-287 -56 0 0
-288 -57 0 0
-115 -58 0 0
-116 -59 0 0
-117 -60 0 0
-139 -58 0 0
-140 -59 0 0
-141 -60 0 0
-148 -58 0 0
-149 -59 0 0
-150 -60 0 0
-175 -58 0 0
-176 -59 0 0
-177 -60 0 0
-217 -58 0 0
-218 -59 0 0
-219 -60 0 0
-250 -58 0 0
-251 -59 0 0
-252 -60 0 0
-109 -61 0 0
-110 -62 0 0
-111 -63 0 0
-160 -61 0 0
-161 -62 0 0
-162 -63 0 0
-208 -61 0 0
-209 -62 0 0
-210 -63 0 0
-103 -64 0 0
-104 -65 0 0
-105 -66 0 0
-142 -64 0 0
-143 -65 0 0
-144 -66 0 0
-169 -64 0 0
-170 -65 0 0
-171 -66 0 0
-181 -64 0 0
-182 -65 0 0
-183 -66 0 0
-274 -64 0 0
-275 -65 0 0
-276 -66 0 0
-283 -64 0 0
-284 -65 0 0
-285 -66 0 0
-286 -64 0 0
-287 -65 0 0
-288 -66 0 0
-139 -67 0 0
-140 -68 0 0
-141 -69 0 0
-154 -67 0 0
-155 -68 0 0
-156 -69 0 0
-166 -67 0 0
-167 -68 0 0
-168 -69 0 0
-193 -67 0 0
-194 -68 0 0
-195 -69 0 0
-217 -67 0 0
-218 -68 0 0
-219 -69 0 0
-220 -67 0 0
-221 -68 0 0
-222 -69 0 0
-241 -67 0 0
-242 -68 0 0
-243 -69 0 0
-229 -70 0 0
-230 -71 0 0
-231 -72 0 0
-262 -70 0 0
-263 -71 0 0
-264 -72 0 0
-274 -70 0 0
-275 -71 0 0
-276 -72 0 0
-289 -70 0 0
-290 -71 0 0
-291 -72 0 0
-112 -73 0 0
-113 -74 0 0
-114 -75 0 0
-157 -73 0 0
-158 -74 0 0
-159 -75 0 0
-166 -73 0 0
-167 -74 0 0
-168 -75 0 0
-169 -73 0 0
-170 -74 0 0
-171 -75 0 0
-226 -73 0 0
-227 -74 0 0
-228 -75 0 0
-253 -73 0 0
-254 -74 0 0
-255 -75 0 0
-268 -73 0 0
-269 -74 0 0
-270 -75 0 0
-298 -73 0 0
-299 -74 0 0
-300 -75 0 0
-124 -76 0 0
-125 -77 0 0
-126 -78 0 0
-151 -76 0 0
-152 -77 0 0
-153 -78 0 0
-175 -76 0 0
-176 -77 0 0
-177 -78 0 0
-190 -76 0 0
-191 -77 0 0
-192 -78 0 0
-250 -76 0 0
-251 -77 0 0
-252 -78 0 0
-277 -76 0 0
-278 -77 0 0
-279 -78 0 0
-235 -79 0 0
-236 -80 0 0
-237 -81 0 0
-271 -79 0 0
-272 -80 0 0
-273 -81 0 0
-274 -79 0 0
-275 -80 0 0
-276 -81 0 0
-295 -79 0 0
-296 -80 0 0
-297 -81 0 0
-115 -82 0 0
-116 -83 0 0
-117 -84 0 0
-145 -82 0 0
-146 -83 0 0
-147 -84 0 0
-154 -82 0 0
-155 -83 0 0
-156 -84 0 0
-178 -82 0 0
-179 -83 0 0
-180 -84 0 0
-205 -82 0 0
-206 -83 0 0
-207 -84 0 0
-223 -82 0 0
-224 -83 0 0
-225 -84 0 0
-241 -82 0 0
-242 -83 0 0
-243 -84 0 0
-253 -82 0 0
-254 -83 0 0
-255 -84 0 0
-298 -85 0 0
-299 -86 0 0
-300 -87 0 0
-178 -88 0 0
-179 -89 0 0
-180 -90 0 0
-202 -88 0 0
-203 -89 0 0
-204 -90 0 0
-103 -91 0 0
-104 -92 0 0
-105 -93 0 0
-154 -91 0 0
-155 -92 0 0
-156 -93 0 0
-193 -91 0 0
-194 -92 0 0
-195 -93 0 0
-232 -91 0 0
-233 -92 0 0
-234 -93 0 0
-268 -91 0 0
-269 -92 0 0
-270 -93 0 0
-289 -91 0 0
-290 -92 0 0
-291 -93 0 0
-298 -91 0 0
-299 -92 0 0
-300 -93 0 0
-175 -94 0 0
-176 -95 0 0
-177 -96 0 0
-190 -94 0 0
-191 -95 0 0
-192 -96 0 0
-196 -94 0 0
-197 -95 0 0
-198 -96 0 0
-217 -94 0 0
-218 -95 0 0
-219 -96 0 0
-223 -94 0 0
-224 -95 0 0
-225 -96 0 0
-265 -94 0 0
-266 -95 0 0
-267 -96 0 0
-103 -97 0 0
-104 -98 0 0
-105 -99 0 0
-118 -97 0 0
-119 -98 0 0
-120 -99 0 0
-133 -97 0 0
-134 -98 0 0
-135 -99 0 0
-151 -97 0 0
-152 -98 0 0
-153 -99 0 0
-271 -97 0 0
-272 -98 0 0
-273 -99 0 0
-121 -100 0 0
-122 -101 0 0
-123 -102 0 0
-127 -100 0 0
-128 -101 0 0
-129 -102 0 0
-154 -100 0 0
-155 -101 0 0
-156 -102 0 0
-190 -100 0 0
-191 -101 0 0
-192 -102 0 0
-265 -100 0 0
-266 -101 0 0
-267 -102 0 0
-268 -100 0 0
-269 -101 0 0
-270 -102 0 0
-235 -103 0 0
-236 -104 0 0
-237 -105 0 0
-238 -103 0 0
-239 -104 0 0
-240 -105 0 0
-247 -103 0 0
-248 -104 0 0
-249 -105 0 0
-277 -103 0 0
-278 -104 0 0
-279 -105 0 0
-256 -106 0 0
-257 -107 0 0
-258 -108 0 0
-271 -106 0 0
-272 -107 0 0
-273 -108 0 0
-295 -106 0 0
-296 -107 0 0
-297 -108 0 0
-205 -109 0 0
-206 -110 0 0
-207 -111 0 0
-238 -109 0 0
-239 -110 0 0
-240 -111 0 0
-268 -109 0 0
-269 -110 0 0
-270 -111 0 0
-286 -109 0 0
-287 -110 0 0
-288 -111 0 0
-274 -112 0 0
-275 -113 0 0
-276 -114 0 0
-214 -115 0 0
-215 -116 0 0
-216 -117 0 0
-229 -115 0 0
-230 -116 0 0
-231 -117 0 0
-250 -115 0 0
-251 -116 0 0
-252 -117 0 0
-211 -118 0 0
-212 -119 0 0
-213 -120 0 0
-223 -118 0 0
-224 -119 0 0
-225 -120 0 0
-289 -118 0 0
-290 -119 0 0
-291 -120 0 0
-265 -121 0 0
-266 -122 0 0
-267 -123 0 0
-229 -124 0 0
-230 -125 0 0
-231 -126 0 0
-247 -124 0 0
-248 -125 0 0
-249 -126 0 0
-217 -127 0 0
-218 -128 0 0
-219 -129 0 0
-220 -127 0 0
-221 -128 0 0
-222 -129 0 0
-283 -127 0 0
-284 -128 0 0
-285 -129 0 0
-205 -133 0 0
-206 -134 0 0
-207 -135 0 0
-208 -133 0 0
-209 -134 0 0
-210 -135 0 0
-214 -133 0 0
-215 -134 0 0
-216 -135 0 0
-229 -133 0 0
-230 -134 0 0
-231 -135 0 0
-211 -139 0 0
-212 -140 0 0
-213 -141 0 0
-226 -139 0 0
-227 -140 0 0
-228 -141 0 0
-259 -139 0 0
-260 -140 0 0
-261 -141 0 0
-211 -142 0 0
-212 -143 0 0
-213 -144 0 0
-259 -142 0 0
-260 -143 0 0
-261 -144 0 0
-265 -142 0 0
-266 -143 0 0
-267 -144 0 0
-280 -142 0 0
-281 -143 0 0
-282 -144 0 0
-268 -145 0 0
-269 -146 0 0
-270 -147 0 0
-274 -145 0 0
-275 -146 0 0
-276 -147 0 0
-298 -145 0 0
-299 -146 0 0
-300 -147 0 0
-274 -148 0 0
-275 -149 0 0
-276 -150 0 0
-232 -151 0 0
-233 -152 0 0
-234 -153 0 0
-262 -151 0 0
-263 -152 0 0
-264 -153 0 0
-295 -151 0 0
-296 -152 0 0
-297 -153 0 0
-265 -154 0 0
-266 -155 0 0
-267 -156 0 0
-268 -154 0 0
-269 -155 0 0
-270 -156 0 0
-277 -154 0 0
-278 -155 0 0
-279 -156 0 0
-289 -154 0 0
-290 -155 0 0
-291 -156 0 0
-223 -157 0 0
-224 -158 0 0
-225 -159 0 0
-202 -160 0 0
-203 -161 0 0
-204 -162 0 0
-217 -160 0 0
-218 -161 0 0
-219 -162 0 0
-226 -160 0 0
-227 -161 0 0
-228 -162 0 0
-271 -160 0 0
-272 -161 0 0
-273 -162 0 0
-247 -163 0 0
-248 -164 0 0
-249 -165 0 0
-241 -166 0 0
-242 -167 0 0
-243 -168 0 0
-217 -169 0 0
-218 -170 0 0
-219 -171 0 0
-229 -169 0 0
-230 -170 0 0
-231 -171 0 0
-280 -169 0 0
-281 -170 0 0
-282 -171 0 0
-202 -172 0 0
-203 -173 0 0
-204 -174 0 0
-238 -172 0 0
-239 -173 0 0
-240 -174 0 0
-241 -172 0 0
-242 -173 0 0
-243 -174 0 0
-280 -172 0 0
-281 -173 0 0
-282 -174 0 0
-259 -175 0 0
-260 -176 0 0
-261 -177 0 0
-220 -178 0 0
-221 -179 0 0
-222 -180 0 0
-271 -181 0 0
-272 -182 0 0
-273 -183 0 0
-292 -181 0 0
-293 -182 0 0
-294 -183 0 0
-223 -187 0 0
-224 -188 0 0
-225 -189 0 0
-238 -187 0 0
-239 -188 0 0
-240 -189 0 0
-247 -187 0 0
-248 -188 0 0
-249 -189 0 0
-262 -190 0 0
-263 -191 0 0
-264 -192 0 0
-226 -193 0 0
-227 -194 0 0
-228 -195 0 0
-274 -193 0 0
-275 -194 0 0
-276 -195 0 0
-298 -193 0 0
-299 -194 0 0
-300 -195 0 0
-208 -196 0 0
-209 -197 0 0
-210 -198 0 0
-223 -196 0 0
-224 -197 0 0
-225 -198 0 0
-250 -196 0 0
-251 -197 0 0
-252 -198 0 0
-280 -196 0 0
-281 -197 0 0
-282 -198 0 0
-220 -199 0 0
-221 -200 0 0
-222 -201 0 0
-268 -199 0 0
-269 -200 0 0
-270 -201 0 0
-283 -199 0 0
-284 -200 0 0
-285 -201 0 0